NPROCS=0
This instance is clustered!
Gurobi Optimizer version 9.0.0 build v9.0.0rc2 (linux64)
Optimize a model with 24 rows, 145 columns and 288 nonzeros
Model fingerprint: 0xca1ceffe
Variable types: 1 continuous, 144 integer (144 binary)
Coefficient statistics:
  Matrix range     [1e+00, 1e+00]
  Objective range  [1e+00, 9e+01]
  Bounds range     [1e+00, 1e+00]
  RHS range        [1e+00, 1e+00]
Presolve removed 2 rows and 33 columns
Presolve time: 0.00s
Presolved: 22 rows, 112 columns, 222 nonzeros
Variable types: 1 continuous, 111 integer (111 binary)

Root relaxation: objective 1.634985e+02, 22 iterations, 0.00 seconds

    Nodes    |    Current Node    |     Objective Bounds      |     Work
 Expl Unexpl |  Obj  Depth IntInf | Incumbent    BestBd   Gap | It/Node Time

     0     0  199.48997    0    8          -  199.48997      -     -    0s
 done with super cut 0
 done with super cut 1
 done with super cut 2
H    0     0                     288.9666972  199.48997  31.0%     -    0s
 done with super cut 3
 done with super cut 4
     0     0  204.77419    0   27  288.96670  204.77419  29.1%     -    0s
 done with super cut 5
 done with super cut 6
H    0     0                     263.6872353  204.77419  22.3%     -    0s
 done with super cut 7
     0     0  205.49754    0   28  263.68724  205.49754  22.1%     -    1s
 done with super cut 8
H    0     0                     257.0840335  205.49754  20.1%     -    1s
 done with super cut 9
 done with super cut 10
     0     2  205.99887    0   29  257.08403  205.99887  19.9%     -    1s
*  555    60              11     255.9363851  236.24828  7.69%   4.6    1s

Cutting planes:
  Gomory: 1
  Lazy constraints: 78

Explored 687 nodes (3248 simplex iterations) in 1.95 seconds
Thread count was 12 (of 12 available processors)

Solution count 4: 255.936 257.084 263.687 288.967 

Optimal solution found (tolerance 1.00e-04)
Best objective 2.559363850788e+02, best bound 2.559363850788e+02, gap 0.0000%

User-callback calls 1598, time in user-callback 1.84 sec
/projects/academic/josewalt/caigao/RRARP_BD/BendersDecomp/ret/model_outs/n_10_m_5_algo_4.out
 =====>>>>> Solution is written to file in <../ret/model_outs> !!!
===>> All Done!
